! RC Lowpass 2-port: R=10 ohm series, C=5pF shunt
! 3dB freq of S21 ~ 1.17 GHz
! Format: RI (Real-Imaginary)
# GHz S RI R 50
! Freq  S11re S11im  S21re S21im  S12re S12im  S22re S22im
0.01           0.09085348  -0.00649042    0.90902418  -0.00778850    0.90902418  -0.00778850    0.09082901  -0.00934620
0.05           0.08952129  -0.03239502    0.90742555  -0.03887402    0.90742555  -0.03887402    0.08891066  -0.04664882
0.1            0.08538823  -0.06443591    0.90246588  -0.07732310    0.90246588  -0.07732310    0.08295906  -0.09278772
0.2            0.06929814  -0.12611463    0.88315777  -0.15133756    0.88315777  -0.15133756    0.05978932  -0.18160507
0.5           -0.02656586  -0.27421854    0.76812097  -0.32906225    0.76812097  -0.32906225   -0.07825484  -0.39487470
1             -0.22979767  -0.37430848    0.52424280  -0.44917018    0.52424280  -0.44917018   -0.37090864  -0.53900422
2             -0.47421326  -0.32978739    0.23094409  -0.39574487    0.23094409  -0.39574487   -0.72286709  -0.47489384
5             -0.62752066  -0.16770108    0.04697520  -0.20124130    0.04697520  -0.20124130   -0.94362976  -0.24148956
10            -0.65648560  -0.08723114    0.01221728  -0.10467737    0.01221728  -0.10467737   -0.98533927  -0.12561285
20            -0.66409549  -0.04405966    0.00308542  -0.05287159    0.00308542  -0.05287159   -0.99629750  -0.06344591
50            -0.66625410  -0.01767425    0.00049508  -0.02120910    0.00049508  -0.02120910   -0.99940591  -0.02545092
100           -0.66656348  -0.00884074    0.00012382  -0.01060888    0.00012382  -0.01060888   -0.99985142  -0.01273066
