! RLC Bandpass 2-port: series R=5, L=1nH, C=2.53pF
! Resonance at ~3.16 GHz (series resonance)
! Format: RI (Real-Imaginary)
# GHz S RI R 50
! Freq  S11re S11im  S21re S21im  S12re S12im  S22re S22im
0.01           0.99973411  -0.01591102    0.00026589   0.01591102    0.00026589   0.01591102    0.99973411  -0.01591102
0.05           0.99339377  -0.07904432    0.00660623   0.07904432    0.00660623   0.07904432    0.99339377  -0.07904432
0.1            0.97407594  -0.15497587    0.02592406   0.15497587    0.02592406   0.15497587    0.97407594  -0.15497587
0.2            0.90361256  -0.28724036    0.09638744   0.28724036    0.09638744   0.28724036    0.90361256  -0.28724036
0.5            0.59672817  -0.47057437    0.40327183   0.47057437    0.40327183   0.47057437    0.59672817  -0.47057437
1              0.26175055  -0.39759585    0.73824945   0.39759585    0.73824945   0.39759585    0.26175055  -0.39759585
1.5            0.13071455  -0.26876330    0.86928545   0.26876330    0.86928545   0.26876330    0.13071455  -0.26876330
2              0.07735456  -0.16563615    0.92264544   0.16563615    0.92264544   0.16563615    0.07735456  -0.16563615
2.5            0.05523135  -0.08480488    0.94476865   0.08480488    0.94476865   0.08480488    0.05523135  -0.08480488
3              0.04799791  -0.01899144    0.95200209   0.01899144    0.95200209   0.01899144    0.04799791  -0.01899144
3.16           0.04761912  -0.00026181    0.95238088   0.00026181    0.95238088   0.00026181    0.04761912  -0.00026181
3.5            0.04902618   0.03658062    0.95097382  -0.03658062    0.95097382  -0.03658062    0.04902618   0.03658062
4              0.05523059   0.08480065    0.94476941  -0.08480065    0.94476941  -0.08480065    0.05523059   0.08480065
5              0.07735299   0.16563191    0.92264701  -0.16563191    0.92264701  -0.16563191    0.07735299   0.16563191
7              0.14288758   0.28575486    0.85711242  -0.28575486    0.85711242  -0.28575486    0.14288758   0.28575486
10             0.26174581   0.39759273    0.73825419  -0.39759273    0.73825419  -0.39759273    0.26174581   0.39759273
15             0.45128488   0.47063526    0.54871512  -0.47063526    0.54871512  -0.47063526    0.45128488   0.47063526
20             0.59672246   0.47057526    0.40327754  -0.47057526    0.40327754  -0.47057526    0.59672246   0.47057526
50             0.90361052   0.28724306    0.09638948  -0.28724306    0.09638948  -0.28724306    0.90361052   0.28724306
